c read Graph
c width = 227
c time = 147 ms
c width = 26
c time = 340 ms
c width = 25
c time = 1234 ms
c width = 24
c time = 3533 ms
c width = 23
c time = 23320 ms
c width = 22
c time = 25988 ms
c width = 21
c time = 84006 ms
c width = 20
c time = 100275 ms
c width = 20
c time = 299890 ms
s td 305 21 374
b 1 46 374
b 2 87 125 374
b 3 25 308
b 4 130 131
b 5 4 250
b 6 95 306
b 7 14 289
b 8 26 358
b 9 41 287
b 10 128 290 291 359
b 11 69 81 133 134
b 12 8 137 138 139
b 13 100 139 140 142
b 14 64 142 143 145
b 15 80 145 146 148
b 16 51 152 153 155
b 17 73 155 156 157
b 18 109 157 158 159
b 19 125 159 160 161
b 20 68 162 163 165
b 21 50 165 166 170
b 22 11 170 171 172
b 23 18 177 178 179
b 24 6 179 180 181
b 25 101 187 188 189
b 26 58 190 191 195
b 27 49 195 196 198
b 28 33 201 202 204
b 29 35 205 206 208
b 30 42 209 210 212
b 31 118 212 213 214
b 32 53 214 215 220
b 33 110 220 221 225
b 34 44 225 226 230
b 35 106 235 236 241
b 36 15 241 242 243
b 37 99 120 243 244
b 38 69 81 251 252
b 39 57 89 122 288
b 40 107 290 291 359
b 41 2 18 125 307
b 42 69 101 309 310
b 43 52 61 185 186 187
b 44 1 52 61 184 185 187
b 45 1 52 61 83 99 184 187 283 354
b 46 1 52 61 83 99 354 356
b 47 1 83 354 355 356
b 48 52 61 99 356 357
b 49 23 83 99 182 184 187 283 354
b 50 23 83 182 183 184
b 51 23 73 99 182 187 281 283 354
b 52 23 73 99 182 187 281 352 354
b 53 23 73 352 353 354
b 54 6 73 86 99 179 182 187 281 352
b 55 6 86 179 181 182
b 56 6 51 53 73 86 99 118 179 187 281 347 352
b 57 6 51 53 86 118 347 349 352
b 58 6 118 347 348 349
b 59 51 53 86 349 351 352
b 60 51 53 349 350 351
b 61 6 51 53 73 86 99 118 175 176 179 187 273 274 276 281 340 341 347
b 62 5 175 176 273 274 340 341
b 63 6 51 53 86 118 276 279 281
b 64 51 53 118 276 278 279
b 65 53 118 276 277 278
b 66 6 86 279 280 281
b 67 37 51 53 73 86 99 118 175 176 179 187 208 209 273 274 276 281 339 340 341 347
b 68 42 51 53 73 99 118 175 176 179 187 208 209 220 273 274 276 281 339 340 341 347
b 69 42 51 73 99 155 157 175 176 179 187 208 209 220 273 274 276 281 339 340 341 347
b 70 42 51 99 120 155 157 175 176 179 187 208 220 243 273 274 276 281 339 340 341 347
b 71 42 51 120 155 157 175 176 179 187 208 220 243 273 274 275 276 281 339 340 341 347
b 72 42 51 72 120 155 157 175 176 179 187 208 220 243 273 275 276 281 339 340 341 347
b 73 42 51 72 120 155 157 175 176 179 187 208 220 243 273 281 339 340 341 342 343 347
b 74 42 51 72 151 155 157 175 176 179 187 208 220 243 273 339 340 341 342 343 346 347
b 75 42 51 72 150 151 157 175 176 179 187 208 220 243 273 339 340 341 342 343 346 347
b 76 42 51 72 150 157 175 176 179 187 208 220 243 273 339 341 342 343 344 345 346 347
b 77 42 51 122 150 157 175 176 179 187 208 220 243 273 339 341 342 343 344 345 346 347
b 78 42 51 122 150 157 174 175 176 179 187 208 220 243 273 339 342 343 344 345 346 347
b 79 42 51 122 150 157 174 176 179 187 208 220 243 272 273 339 342 343 344 345 346 347
b 80 12 42 51 122 149 150 157 174 176 179 187 208 220 243 272 339 343 344 345 346 347
b 81 12 42 51 107 122 149 157 174 176 179 187 208 220 243 272 339 343 344 345 346 347
b 82 12 42 51 107 122 149 157 174 176 177 179 187 208 220 243 272 339 344 345 346 347
b 83 12 18 42 51 107 122 149 157 174 177 179 187 208 220 243 272 339 344 345 346 347
b 84 12 18 42 51 82 107 122 148 149 157 174 187 208 220 243 272 339 344 345 346 347
b 85 12 18 42 51 78 82 107 122 148 157 173 174 187 208 220 243 272 339 345 346 347
b 86 12 18 42 48 51 78 82 107 122 148 157 172 173 187 208 220 243 272 339 346 347
b 87 11 12 18 42 48 51 78 82 107 122 148 157 170 172 187 208 220 243 272 339 347
b 88 11 12 15 18 42 48 51 78 82 107 122 148 157 170 187 208 220 241 243 272 339
b 89 11 12 15 18 42 48 51 78 82 107 122 148 157 170 187 208 220 241 270 272 339
b 90 11 12 15 18 42 48 51 78 82 107 122 148 157 170 187 208 220 241 270 336 339
b 91 11 12 18 42 51 78 82 107 122 148 157 170 187 208 220 241 269 270 335 336 339
b 92 11 12 18 35 42 51 78 107 122 148 157 170 187 205 208 220 241 269 335 336 339
b 93 11 12 18 35 42 51 78 107 122 148 157 170 187 205 220 241 268 269 335 336 339
b 94 11 12 18 35 42 51 78 107 122 148 157 170 187 205 220 241 268 334 335 336 339
b 95 11 12 18 42 51 78 107 122 145 148 157 170 187 205 220 241 268 333 334 336 339
b 96 11 12 18 42 51 55 78 107 122 145 157 170 187 204 205 220 241 268 333 336 339
b 97 11 12 18 42 51 55 78 106 107 122 145 157 170 187 204 220 235 241 268 333 339
b 98 11 12 18 42 51 55 78 106 107 122 145 157 170 187 204 220 235 267 268 333 339
b 99 11 12 18 42 51 55 78 106 107 122 145 157 170 187 204 220 235 267 332 333 339
b 100 11 12 18 42 51 55 78 107 116 122 145 157 170 187 204 220 234 235 267 332 339
b 101 11 12 18 42 51 55 78 89 107 116 122 145 157 170 187 204 220 234 266 267 332
b 102 11 12 18 42 51 55 78 89 107 116 122 145 157 170 187 204 220 234 265 266 332
b 103 11 12 18 42 51 55 78 89 107 116 122 145 157 170 187 204 220 234 264 265 332
b 104 11 12 18 42 51 55 78 89 107 116 122 145 157 170 187 204 220 234 264 329 332
b 105 11 18 42 51 55 78 89 107 116 122 145 157 170 187 204 220 234 264 329 330 332
b 106 89 107 116 122 145 157 170 187 204 220 234 264 329 330 331 332
b 107 12 18 42 51 55 78 89 107 122 145 157 170 187 204 220 230 234 262 264 325 329
b 108 91 104 230 234 262 264 325 329
b 109 91 104 230 234 325 327 329
b 110 91 104 327 328 329
b 111 91 104 230 232 234 325 327
b 112 230 231 232 325 326 327
b 113 115 230 231 326 327
b 114 66 231 232 325 326
b 115 91 104 232 233 234
b 116 91 104 262 263 264
b 117 12 18 42 51 55 78 89 107 122 145 157 170 187 201 204 220 230 262 293 325 361
b 118 33 89 107 201 204 293 361
b 119 33 89 107 293 360 361
b 120 33 89 107 292 293 360
b 121 89 107 292 359 360
b 122 89 107 291 292 359
b 123 12 18 42 44 51 55 78 89 110 122 145 157 170 187 201 220 230 262 293 325 361
b 124 44 110 220 225 230
b 125 2 12 18 42 44 51 55 78 89 110 122 145 157 170 187 201 262 293 325 361 362
b 126 2 12 18 42 44 51 55 78 89 110 122 145 157 170 187 201 262 293 294 325 362
b 127 2 12 18 42 44 51 55 78 89 110 122 145 157 170 187 200 201 262 294 325 362
b 128 2 12 18 42 44 51 55 78 89 110 122 125 145 157 170 187 200 262 294 325 362
b 129 80 145 148 333 334
b 130 15 48 78 336 338 339
b 131 15 78 336 337 338
b 132 15 48 270 271 272
b 133 51 151 152 155 346 347
b 134 151 152 155 346 347
b 135 90 151 152 346 347
b 136 42 53 118 209 214 220
b 137 42 118 209 212 214
b 138 23 73 281 282 283
b 139 1 52 61 83 99 283 285
b 140 83 99 283 284 285
b 141 1 52 61 285 286
b 142 12 36 42 50 64 100 122 135 139 198 199 257 259 302 319 321 325 372 373
b 143 12 42 50 64 100 122 135 139 165 170 198 199 257 259 260 302 319 321 325 372 373
b 144 12 42 64 100 122 135 139 142 165 170 198 199 257 259 260 302 319 321 325 372 373
b 145 12 42 64 100 122 135 142 165 170 198 199 257 259 260 261 302 319 321 325 372 373
b 146 12 42 64 122 135 142 145 165 170 198 199 257 259 260 261 302 319 321 325 372 373
b 147 12 42 64 122 135 145 165 170 198 199 257 259 260 261 262 302 319 321 325 372 373
b 148 12 42 68 122 135 145 162 165 170 198 199 257 260 261 262 302 319 321 325 372 373
b 149 12 42 68 122 135 145 162 170 198 199 257 261 262 302 317 318 319 321 325 372 373
b 150 12 42 74 122 135 145 161 162 170 198 199 257 262 302 317 318 319 321 325 372 373
b 151 12 42 74 122 135 145 161 170 198 199 257 262 302 316 317 318 319 321 325 372 373
b 152 12 42 44 74 122 135 145 161 170 198 199 257 262 302 316 318 319 321 325 372 373
b 153 12 42 44 74 122 135 145 161 170 198 199 257 262 301 302 316 319 321 325 372 373
b 154 12 42 44 58 74 122 135 145 161 170 198 199 255 257 262 301 316 321 325 372 373
b 155 12 42 44 49 58 122 135 145 161 170 195 198 199 255 262 301 316 321 325 372 373
b 156 12 42 44 49 58 122 135 145 161 170 190 195 199 255 262 301 316 321 325 372 373
b 157 12 42 44 49 58 122 135 145 161 170 190 199 255 262 300 301 316 321 325 372 373
b 158 12 42 44 49 58 122 135 145 161 170 190 199 255 262 300 314 315 316 325 372 373
b 159 12 42 44 49 122 125 135 145 161 170 190 199 255 262 300 314 315 316 325 372 373
b 160 12 42 44 49 109 122 125 135 145 157 161 170 190 199 255 262 300 314 325 372 373
b 161 12 42 44 49 109 122 125 135 145 157 170 190 199 255 262 300 314 325 369 372 373
b 162 12 42 44 49 57 101 109 122 125 135 145 157 170 190 199 255 262 300 314 325 369
b 163 12 42 44 49 57 101 122 125 145 157 170 187 189 190 199 255 262 300 314 325 369
b 164 12 42 44 49 57 78 110 122 125 145 157 170 187 199 255 262 300 314 325 366 369
b 165 12 42 44 57 78 89 110 122 125 145 157 170 187 199 200 262 300 314 325 366 369
b 166 12 42 44 55 57 78 89 110 122 125 145 157 170 187 200 262 300 325 364 366 369
b 167 12 42 44 55 57 78 89 110 122 125 145 157 170 187 200 262 300 325 363 364 369
b 168 12 42 44 51 55 57 78 89 110 122 125 145 157 170 187 200 262 294 300 325 363
b 169 12 42 44 51 55 78 89 110 122 125 145 157 170 187 200 262 294 300 325 362 363
b 170 58 74 255 256 257
b 171 57 101 109 135 255 312 314
b 172 57 101 109 135 253 255 312
b 173 69 76 81 101 135 253 312
b 174 69 76 81 252 253
b 175 69 76 81 101 311 312
b 176 69 81 101 310 311
b 177 69 76 81 134 135
b 178 57 109 253 254 255
b 179 57 109 312 313 314
b 180 109 125 157 159 161
b 181 12 44 122 369 370 372
b 182 12 122 370 371 372
b 183 55 125 364 365 366
b 184 49 78 110 366 368 369
b 185 49 110 366 367 368
b 186 51 55 57 78 110 125 294 296 300
b 187 55 78 110 125 296 298 300
b 188 55 125 296 297 298
b 189 78 110 298 299 300
b 190 51 57 294 295 296
b 191 12 36 42 50 64 100 122 135 136 137 139 257 259 302 319 321 325 372 373
b 192 12 30 36 42 50 64 100 122 135 136 137 139 257 259 302 319 321 325 372 373
b 193 8 12 30 36 42 50 64 100 122 136 137 139 257 259 302 319 321 325 372 373
b 194 3 12 30 36 42 122 136 137 302 319 321 372 373
b 195 3 30 319 320 321
b 196 3 12 36 42 122 302 304
b 197 12 122 302 303 304
b 198 3 36 42 304 305
b 199 8 50 64 100 321 323 325
b 200 8 100 321 322 323
b 201 50 64 323 324 325
b 202 8 30 257 258 259
b 203 84 242 243
b 204 20 240 241
b 205 236 240 241
b 206 62 239 240
b 207 236 239 240
b 208 59 238 239
b 209 236 238 239
b 210 16 237 238
b 211 236 237 238
b 212 97 236 237
b 213 108 229 230
b 214 226 229 230
b 215 39 228 229
b 216 226 228 229
b 217 112 227 228
b 218 226 227 228
b 219 54 226 227
b 220 31 224 225
b 221 221 224 225
b 222 10 223 224
b 223 221 223 224
b 224 65 222 223
b 225 221 222 223
b 226 105 221 222
b 227 93 219 220
b 228 215 219 220
b 229 21 218 219
b 230 215 218 219
b 231 127 217 218
b 232 215 217 218
b 233 43 216 217
b 234 215 216 217
b 235 38 215 216
b 236 28 213 214
b 237 70 211 212
b 238 210 211 212
b 239 113 210 211
b 240 7 207 208
b 241 206 207 208
b 242 63 206 207
b 243 121 203 204
b 244 202 203 204
b 245 88 202 203
b 246 92 197 198
b 247 196 197 198
b 248 13 196 197
b 249 114 194 195
b 250 191 194 195
b 251 77 193 194
b 252 191 193 194
b 253 32 192 193
b 254 191 192 193
b 255 75 191 192
b 256 119 188 189
b 257 117 180 181
b 258 123 178 179
b 259 60 171 172
b 260 124 169 170
b 261 166 169 170
b 262 79 168 169
b 263 166 168 169
b 264 19 167 168
b 265 166 167 168
b 266 103 166 167
b 267 71 164 165
b 268 163 164 165
b 269 85 163 164
b 270 40 160 161
b 271 94 158 159
b 272 56 156 157
b 273 98 154 155
b 274 153 154 155
b 275 17 153 154
b 276 126 147 148
b 277 146 147 148
b 278 102 146 147
b 279 67 144 145
b 280 143 144 145
b 281 129 143 144
b 282 29 141 142
b 283 140 141 142
b 284 24 140 141
b 285 9 138 139
b 286 128 358 359
b 287 107 289 290
b 288 22 246 247
b 289 99 246 247
b 290 45 248 249
b 291 99 248 249
b 292 96 99 249
b 293 99 247 248
b 294 111 247 248
b 295 27 245 246
b 296 99 245 246
b 297 47 244 245
b 298 99 244 245
b 299 89 287 288
b 300 69 308 309
b 301 69 250 251
b 302 34 132 133
b 303 69 132 133
b 304 69 131 132
b 305 18 306 307
1 2
2 19
3 300
4 304
5 301
6 305
7 287
8 286
9 299
10 286
10 40
11 303
11 177
12 285
12 193
13 283
13 144
14 280
14 146
15 277
15 129
16 274
16 133
17 272
17 69
18 271
18 180
19 270
19 180
20 268
20 148
21 261
21 143
22 259
22 87
23 258
23 83
24 257
24 55
25 256
25 163
26 250
26 156
27 247
27 155
28 244
28 118
29 241
29 92
30 238
30 137
31 236
31 137
32 228
32 136
33 221
33 124
34 214
34 124
35 205
35 97
36 203
36 88
37 298
37 70
38 301
38 174
39 299
39 165
40 287
40 122
41 305
41 128
42 300
42 176
43 44
44 45
45 139
45 49
45 46
46 47
46 48
49 51
49 50
51 138
51 52
52 54
52 53
54 56
54 55
56 61
56 57
57 59
57 58
59 60
61 67
61 63
61 62
63 66
63 64
64 65
67 68
68 136
68 69
69 70
70 71
71 72
72 73
73 74
74 133
74 75
75 76
76 77
77 78
78 79
79 80
80 81
81 82
82 83
83 84
84 85
85 86
86 87
87 88
88 89
89 132
89 90
90 130
90 91
91 92
92 93
93 94
94 95
95 129
95 96
96 97
97 98
98 99
99 100
100 101
101 102
102 103
103 104
104 107
104 105
105 106
107 117
107 108
108 109
108 116
109 111
109 110
111 115
111 112
112 113
112 114
117 123
117 118
118 119
119 120
120 121
121 122
123 125
123 124
125 126
126 127
127 128
128 169
130 131
133 135
133 134
136 137
139 140
139 141
142 191
142 143
143 144
144 145
145 146
146 147
147 148
148 149
149 150
150 151
151 152
152 153
153 154
154 170
154 155
155 156
156 157
157 158
158 159
159 160
160 180
160 161
161 181
161 162
162 171
162 163
163 164
164 184
164 165
165 166
166 183
166 167
167 168
168 186
168 169
171 179
171 172
172 178
172 173
173 177
173 175
173 174
175 176
181 182
184 185
186 190
186 187
187 189
187 188
191 192
192 193
193 199
193 202
193 194
194 196
194 195
196 198
196 197
199 200
199 201
204 205
205 207
206 207
207 209
208 209
209 211
210 211
211 212
213 214
214 216
215 216
216 218
217 218
218 219
220 221
221 223
222 223
223 225
224 225
225 226
227 228
228 230
229 230
230 232
231 232
232 234
233 234
234 235
237 238
238 239
240 241
241 242
243 244
244 245
246 247
247 248
249 250
250 252
251 252
252 254
253 254
254 255
260 261
261 263
262 263
263 265
264 265
265 266
267 268
268 269
273 274
274 275
276 277
277 278
279 280
280 281
282 283
283 284
288 289
289 296
289 293
290 291
291 293
291 292
293 294
295 296
296 298
297 298
302 303
303 304
